# ---------- 基本 ----------
ISTART = 1
ISPIN  = 1
LREAL  = Auto
ENCUT  = 500

LWAVE  = .FALSE.
LCHARG = .FALSE.

# ---------- 电子结构（关键） ----------
ISMEAR = 1
SIGMA  = 0.2
NELM   = 120
NELMIN = 6
EDIFF  = 1E-6

GGA    = PE        # PBE
# 如果你明确要 PBEsol → 改成 GGA = PS

# ---------- 离子 / 静态 ----------
IBRION = -1
NSW    = 0

# ---------- k 点 ----------
KSPACING = 0.12
KGAMMA   = .FALSE.

# ---------- 对称性（非常重要） ----------
ISYM   = 0
SYMPREC= 1E-8

# ---------- 并行 ----------
NCORE  = 4

