POSCAR file written by OVITO Basic 3.13.0
1
2.55833638 0.0 0.0
3.8489770825e-16 6.2858566 0.0
2.094778496e-15 -1.1523699517e-06 34.21032901
Cu 
46 
Cartesian
0.0 2.0413884625 1.2176824508
0.0 6.0734952206 0.0
0.0 2.0413873922 32.9926465592
1.27916819 3.9174715503 0.0
1.27916819 0.0178067489 32.1459409162
1.27916819 2.1547978135 3.4076908727
1.27916819 0.0178077622 2.0643880938
1.27916819 2.1547968908 30.8026381373
0.0 0.0371106858 30.02931365
0.0 4.2011700463 31.762751021
0.0 2.132180453 28.5986034805
1.27916819 0.0189823487 27.8542893522
1.27916819 4.2288844666 29.4289223759
1.27916819 2.1073011074 26.3752741982
1.27916819 6.2668725228 23.4612041628
1.27916819 2.0569704048 21.8865711391
1.27916819 4.178553764 24.9402193168
0.0 -8.6427746376e-07 25.6577467575
0.0 4.2036405425 27.172888019
0.0 2.0822143289 24.142605496
0.0 4.2444675613 15.8874820542
0.0 0.2123608032 17.105164505
0.0 4.2444674792 18.3228469558
0.0 6.2487441856 21.286179865
0.0 2.0846848252 19.552742494
0.0 4.1536744185 22.7168900345
1.27916819 6.2680482616 15.0407764112
1.27916819 4.1310582103 13.6974736323
1.27916819 2.3683844736 17.105164505
1.27916819 6.2680481225 19.1695525988
1.27916819 4.1310579807 20.5128553777
0.0 2.0846849901 14.657586516
0.0 6.2487444673 12.924149145
0.0 4.1536747966 11.4934389755
1.27916819 6.266872951 10.7491248472
1.27916819 4.1785542919 9.2701096932
1.27916819 2.0569707269 12.3237578709
0.0 4.2036412208 7.037440991
0.0 -2.8809248792e-07 8.5525822525
0.0 2.082214803 10.067723514
0.0 4.2011710337 2.447577989
0.0 0.0371115565 4.18101536
0.0 2.1321812273 5.6117255295
1.27916819 2.1073017319 7.8350548118
1.27916819 0.0189830728 6.3560396578
1.27916819 4.2288852969 4.7814066341
