Cu
 1.0000000000000000
    -6.3904775349734235   11.0686317752014851    0.0000000000000000
   -19.1714326049202697  -11.0686317752014851    0.0000000000000000
     0.0000000000000000    0.0000000000000000   35.4810607930484565
 Cu 
 850
Cartesian
 -12.7809550699468453 -0.0000000000000009  0.0000000000000000
 -11.5028595629521622  2.2137263550402970  0.0000000000000000
 -10.2247640559574791  4.4274527100805923  0.0000000000000000
 -8.9466685489627942  6.6411790651208911  0.0000000000000000
 -7.6685730419681084  8.8549054201611881  0.0000000000000000
 -10.2247640559574773  0.0000000000000000  0.0000000000000000
 -8.9466685489627942  2.2137263550402966  0.0000000000000000
 -7.6685730419681066  4.4274527100805940  0.0000000000000000
 -6.3904775349734226  6.6411790651208893  0.0000000000000000
 -5.1123820279787386  8.8549054201611881  0.0000000000000000
 -7.6685730419681075  0.0000000000000000  0.0000000000000000
 -6.3904775349734226  2.2137263550402975  0.0000000000000000
 -5.1123820279787378  4.4274527100805940  0.0000000000000000
 -3.8342865209840524  6.6411790651208902  0.0000000000000000
 -21.7276236189096394 -2.2137263550402979  0.0000000000000000
 -5.1123820279787395  0.0000000000000000  0.0000000000000000
 -3.8342865209840542  2.2137263550402970  0.0000000000000000
 -2.5561910139893680  4.4274527100805940  0.0000000000000000
 -20.4495281119149581 -4.4274527100805949  0.0000000000000000
 -19.1714326049202732 -2.2137263550402979  0.0000000000000000
 -2.5561910139893680  0.0000000000000000  0.0000000000000000
 -1.2780955069946831  2.2137263550402970  0.0000000000000000
 -19.1714326049202697 -6.6411790651208920  0.0000000000000000
 -17.8933370979255884 -4.4274527100805958  0.0000000000000000
 -16.6152415909308999 -2.2137263550402970  0.0000000000000000
 -11.5028595629521604  0.7379087850134320  2.0871212231204974
 -10.2247640559574755  2.9516351400537286  2.0871212231204974
 -8.9466685489627942  5.1653614950940261  2.0871212231204974
 -7.6685730419681075  7.3790878501343240  2.0871212231204974
 -6.3904775349734226  9.5928142051746210  2.0871212231204974
 -8.9466685489627924  0.7379087850134325  2.0871212231204974
 -7.6685730419681093  2.9516351400537286  2.0871212231204974
 -6.3904775349734226  5.1653614950940243  2.0871212231204974
 -5.1123820279787386  7.3790878501343222  2.0871212231204974
 -23.0057191259043279 -1.4758175700268641  2.0871212231204974
 -6.3904775349734226  0.7379087850134325  2.0871212231204974
 -5.1123820279787378  2.9516351400537300  2.0871212231204974
 -3.8342865209840538  5.1653614950940252  2.0871212231204974
 -21.7276236189096430 -3.6895439250671629  2.0871212231204974
 -20.4495281119149546 -1.4758175700268668  2.0871212231204974
 -3.8342865209840546  0.7379087850134325  2.0871212231204974
 -2.5561910139893715  2.9516351400537295  2.0871212231204974
 -20.4495281119149581 -5.9032702801074581  2.0871212231204974
 -19.1714326049202697 -3.6895439250671638  2.0871212231204974
 -17.8933370979255884 -1.4758175700268641  2.0871212231204974
 -1.2780955069946849  0.7379087850134323  2.0871212231204974
 -19.1714326049202732 -8.1169966351477569  2.0871212231204974
 -17.8933370979255848 -5.9032702801074599  2.0871212231204974
 -16.6152415909309035 -3.6895439250671629  2.0871212231204974
 -15.3371460839362204 -1.4758175700268668  2.0871212231204974
 -10.2247640559574791  1.4758175700268650  4.1742424462409948
 -8.9466685489627942  3.6895439250671620  4.1742424462409948
 -7.6685730419681075  5.9032702801074581  4.1742424462409948
 -6.3904775349734235  8.1169966351477552  4.1742424462409948
 -24.2838146328990092 -0.7379087850134329  4.1742424462409948
 -7.6685730419681093  1.4758175700268650  4.1742424462409948
 -6.3904775349734253  3.6895439250671620  4.1742424462409948
 -5.1123820279787378  5.9032702801074572  4.1742424462409948
 -23.0057191259043243 -2.9516351400537308  4.1742424462409948
 -21.7276236189096430 -0.7379087850134347  4.1742424462409948
 -5.1123820279787378  1.4758175700268648  4.1742424462409948
 -3.8342865209840538  3.6895439250671616  4.1742424462409948
 -21.7276236189096394 -5.1653614950940279  4.1742424462409948
 -20.4495281119149581 -2.9516351400537317  4.1742424462409948
 -19.1714326049202697 -0.7379087850134347  4.1742424462409948
 -2.5561910139893698  1.4758175700268645  4.1742424462409948
 -20.4495281119149546 -7.3790878501343240  4.1742424462409948
 -19.1714326049202697 -5.1653614950940270  4.1742424462409948
 -17.8933370979255848 -2.9516351400537308  4.1742424462409948
 -16.6152415909308999 -0.7379087850134338  4.1742424462409948
 -19.1714326049202697 -9.5928142051746228  4.1742424462409948
 -17.8933370979255848 -7.3790878501343231  4.1742424462409948
 -16.6152415909308999 -5.1653614950940261  4.1742424462409948
 -15.3371460839362168 -2.9516351400537300  4.1742424462409948
 -14.0590505769415319 -0.7379087850134347  4.1742424462409948
 -12.7809550699468453 -0.0000000000000009  6.2613636693614918
 -11.5028595629521622  2.2137263550402970  6.2613636693614918
 -10.2247640559574791  4.4274527100805923  6.2613636693614918
 -8.9466685489627942  6.6411790651208911  6.2613636693614918
 -7.6685730419681084  8.8549054201611881  6.2613636693614918
 -10.2247640559574773  0.0000000000000000  6.2613636693614918
 -8.9466685489627942  2.2137263550402966  6.2613636693614918
 -7.6685730419681066  4.4274527100805940  6.2613636693614918
 -6.3904775349734226  6.6411790651208893  6.2613636693614918
 -5.1123820279787386  8.8549054201611881  6.2613636693614918
 -7.6685730419681075  0.0000000000000000  6.2613636693614918
 -6.3904775349734226  2.2137263550402975  6.2613636693614918
 -5.1123820279787378  4.4274527100805940  6.2613636693614918
 -3.8342865209840524  6.6411790651208902  6.2613636693614918
 -21.7276236189096394 -2.2137263550402979  6.2613636693614918
 -5.1123820279787395  0.0000000000000000  6.2613636693614918
 -3.8342865209840542  2.2137263550402970  6.2613636693614918
 -2.5561910139893680  4.4274527100805940  6.2613636693614918
 -20.4495281119149581 -4.4274527100805949  6.2613636693614918
 -19.1714326049202732 -2.2137263550402979  6.2613636693614918
 -2.5561910139893680  0.0000000000000000  6.2613636693614918
 -1.2780955069946831  2.2137263550402970  6.2613636693614918
 -19.1714326049202697 -6.6411790651208920  6.2613636693614918
 -17.8933370979255884 -4.4274527100805958  6.2613636693614918
 -16.6152415909308999 -2.2137263550402970  6.2613636693614918
 -11.5028595629521604  0.7379087850134320  8.3484848924819897
 -10.2247640559574755  2.9516351400537286  8.3484848924819897
 -8.9466685489627942  5.1653614950940261  8.3484848924819897
 -7.6685730419681075  7.3790878501343240  8.3484848924819897
 -6.3904775349734226  9.5928142051746210  8.3484848924819897
 -8.9466685489627924  0.7379087850134325  8.3484848924819897
 -7.6685730419681093  2.9516351400537286  8.3484848924819897
 -6.3904775349734226  5.1653614950940243  8.3484848924819897
 -5.1123820279787386  7.3790878501343222  8.3484848924819897
 -23.0057191259043279 -1.4758175700268641  8.3484848924819897
 -6.3904775349734226  0.7379087850134325  8.3484848924819897
 -5.1123820279787378  2.9516351400537300  8.3484848924819897
 -3.8342865209840538  5.1653614950940252  8.3484848924819897
 -21.7276236189096430 -3.6895439250671629  8.3484848924819897
 -20.4495281119149546 -1.4758175700268668  8.3484848924819897
 -3.8342865209840546  0.7379087850134325  8.3484848924819897
 -2.5561910139893715  2.9516351400537295  8.3484848924819897
 -20.4495281119149581 -5.9032702801074581  8.3484848924819897
 -19.1714326049202697 -3.6895439250671638  8.3484848924819897
 -17.8933370979255884 -1.4758175700268641  8.3484848924819897
 -1.2780955069946849  0.7379087850134323  8.3484848924819897
 -19.1714326049202732 -8.1169966351477569  8.3484848924819897
 -17.8933370979255848 -5.9032702801074599  8.3484848924819897
 -16.6152415909309035 -3.6895439250671629  8.3484848924819897
 -15.3371460839362204 -1.4758175700268668  8.3484848924819897
 -12.7809550699468453 -0.0000000000000009 10.4356061156024875
 -11.5028595629521622  2.2137263550402970 10.4356061156024875
 -10.2247640559574791  4.4274527100805923 10.4356061156024875
 -8.9466685489627942  6.6411790651208911 10.4356061156024875
 -7.6685730419681084  8.8549054201611881 10.4356061156024875
 -10.2247640559574773  0.0000000000000000 10.4356061156024875
 -8.9466685489627942  2.2137263550402966 10.4356061156024875
 -7.6685730419681066  4.4274527100805940 10.4356061156024875
 -6.3904775349734226  6.6411790651208893 10.4356061156024875
 -5.1123820279787386  8.8549054201611881 10.4356061156024875
 -7.6685730419681075  0.0000000000000000 10.4356061156024875
 -6.3904775349734226  2.2137263550402975 10.4356061156024875
 -5.1123820279787378  4.4274527100805940 10.4356061156024875
 -3.8342865209840524  6.6411790651208902 10.4356061156024875
 -21.7276236189096394 -2.2137263550402979 10.4356061156024875
 -5.1123820279787395  0.0000000000000000 10.4356061156024875
 -3.8342865209840542  2.2137263550402970 10.4356061156024875
 -2.5561910139893680  4.4274527100805940 10.4356061156024875
 -20.4495281119149581 -4.4274527100805949 10.4356061156024875
 -19.1714326049202732 -2.2137263550402979 10.4356061156024875
 -2.5561910139893680  0.0000000000000000 10.4356061156024875
 -1.2780955069946831  2.2137263550402970 10.4356061156024875
 -19.1714326049202697 -6.6411790651208920 10.4356061156024875
 -17.8933370979255884 -4.4274527100805958 10.4356061156024875
 -16.6152415909308999 -2.2137263550402970 10.4356061156024875
 -10.2247640559574791  1.4758175700268650 12.5227273387229836
 -8.9466685489627942  3.6895439250671620 12.5227273387229836
 -7.6685730419681075  5.9032702801074581 12.5227273387229836
 -6.3904775349734235  8.1169966351477552 12.5227273387229836
 -24.2838146328990092 -0.7379087850134329 12.5227273387229836
 -7.6685730419681093  1.4758175700268650 12.5227273387229836
 -6.3904775349734253  3.6895439250671620 12.5227273387229836
 -5.1123820279787378  5.9032702801074572 12.5227273387229836
 -23.0057191259043243 -2.9516351400537308 12.5227273387229836
 -21.7276236189096430 -0.7379087850134347 12.5227273387229836
 -5.1123820279787378  1.4758175700268648 12.5227273387229836
 -3.8342865209840538  3.6895439250671616 12.5227273387229836
 -21.7276236189096394 -5.1653614950940279 12.5227273387229836
 -20.4495281119149581 -2.9516351400537317 12.5227273387229836
 -19.1714326049202697 -0.7379087850134347 12.5227273387229836
 -2.5561910139893698  1.4758175700268645 12.5227273387229836
 -20.4495281119149546 -7.3790878501343240 12.5227273387229836
 -19.1714326049202697 -5.1653614950940270 12.5227273387229836
 -17.8933370979255848 -2.9516351400537308 12.5227273387229836
 -16.6152415909308999 -0.7379087850134338 12.5227273387229836
 -19.1714326049202697 -9.5928142051746228 12.5227273387229836
 -17.8933370979255848 -7.3790878501343231 12.5227273387229836
 -16.6152415909308999 -5.1653614950940261 12.5227273387229836
 -15.3371460839362168 -2.9516351400537300 12.5227273387229836
 -14.0590505769415319 -0.7379087850134347 12.5227273387229836
 -11.5028595629521604  0.7379087850134320 14.6098485618434815
 -10.2247640559574755  2.9516351400537286 14.6098485618434815
 -8.9466685489627942  5.1653614950940261 14.6098485618434815
 -7.6685730419681075  7.3790878501343240 14.6098485618434815
 -6.3904775349734226  9.5928142051746210 14.6098485618434815
 -8.9466685489627924  0.7379087850134325 14.6098485618434815
 -7.6685730419681093  2.9516351400537286 14.6098485618434815
 -6.3904775349734226  5.1653614950940243 14.6098485618434815
 -5.1123820279787386  7.3790878501343222 14.6098485618434815
 -23.0057191259043279 -1.4758175700268641 14.6098485618434815
 -6.3904775349734226  0.7379087850134325 14.6098485618434815
 -5.1123820279787378  2.9516351400537300 14.6098485618434815
 -3.8342865209840538  5.1653614950940252 14.6098485618434815
 -21.7276236189096430 -3.6895439250671629 14.6098485618434815
 -20.4495281119149546 -1.4758175700268668 14.6098485618434815
 -3.8342865209840546  0.7379087850134325 14.6098485618434815
 -2.5561910139893715  2.9516351400537295 14.6098485618434815
 -20.4495281119149581 -5.9032702801074581 14.6098485618434815
 -19.1714326049202697 -3.6895439250671638 14.6098485618434815
 -17.8933370979255884 -1.4758175700268641 14.6098485618434815
 -1.2780955069946849  0.7379087850134323 14.6098485618434815
 -19.1714326049202732 -8.1169966351477569 14.6098485618434815
 -17.8933370979255848 -5.9032702801074599 14.6098485618434815
 -16.6152415909309035 -3.6895439250671629 14.6098485618434815
 -15.3371460839362204 -1.4758175700268668 14.6098485618434815
 -12.7809550699468453 -0.0000000000000009 16.6969697849639793
 -11.5028595629521622  2.2137263550402970 16.6969697849639793
 -10.2247640559574791  4.4274527100805923 16.6969697849639793
 -8.9466685489627942  6.6411790651208911 16.6969697849639793
 -7.6685730419681084  8.8549054201611881 16.6969697849639793
 -10.2247640559574773  0.0000000000000000 16.6969697849639793
 -8.9466685489627942  2.2137263550402966 16.6969697849639793
 -7.6685730419681066  4.4274527100805940 16.6969697849639793
 -6.3904775349734226  6.6411790651208893 16.6969697849639793
 -5.1123820279787386  8.8549054201611881 16.6969697849639793
 -7.6685730419681075  0.0000000000000000 16.6969697849639793
 -6.3904775349734226  2.2137263550402975 16.6969697849639793
 -5.1123820279787378  4.4274527100805940 16.6969697849639793
 -3.8342865209840524  6.6411790651208902 16.6969697849639793
 -21.7276236189096394 -2.2137263550402979 16.6969697849639793
 -5.1123820279787395  0.0000000000000000 16.6969697849639793
 -3.8342865209840542  2.2137263550402970 16.6969697849639793
 -2.5561910139893680  4.4274527100805940 16.6969697849639793
 -20.4495281119149581 -4.4274527100805949 16.6969697849639793
 -19.1714326049202732 -2.2137263550402979 16.6969697849639793
 -2.5561910139893680  0.0000000000000000 16.6969697849639793
 -1.2780955069946831  2.2137263550402970 16.6969697849639793
 -19.1714326049202697 -6.6411790651208920 16.6969697849639793
 -17.8933370979255884 -4.4274527100805958 16.6969697849639793
 -16.6152415909308999 -2.2137263550402970 16.6969697849639793
 -10.2247640559574791  1.4758175700268650 18.7840910080844772
 -8.9466685489627942  3.6895439250671620 18.7840910080844772
 -7.6685730419681075  5.9032702801074581 18.7840910080844772
 -6.3904775349734235  8.1169966351477552 18.7840910080844772
 -24.2838146328990092 -0.7379087850134329 18.7840910080844772
 -7.6685730419681093  1.4758175700268650 18.7840910080844772
 -6.3904775349734253  3.6895439250671620 18.7840910080844772
 -5.1123820279787378  5.9032702801074572 18.7840910080844772
 -23.0057191259043243 -2.9516351400537308 18.7840910080844772
 -21.7276236189096430 -0.7379087850134347 18.7840910080844772
 -5.1123820279787378  1.4758175700268648 18.7840910080844772
 -3.8342865209840538  3.6895439250671616 18.7840910080844772
 -21.7276236189096394 -5.1653614950940279 18.7840910080844772
 -20.4495281119149581 -2.9516351400537317 18.7840910080844772
 -19.1714326049202697 -0.7379087850134347 18.7840910080844772
 -2.5561910139893698  1.4758175700268645 18.7840910080844772
 -20.4495281119149546 -7.3790878501343240 18.7840910080844772
 -19.1714326049202697 -5.1653614950940270 18.7840910080844772
 -17.8933370979255848 -2.9516351400537308 18.7840910080844772
 -16.6152415909308999 -0.7379087850134338 18.7840910080844772
 -19.1714326049202697 -9.5928142051746228 18.7840910080844772
 -17.8933370979255848 -7.3790878501343231 18.7840910080844772
 -16.6152415909308999 -5.1653614950940261 18.7840910080844772
 -15.3371460839362168 -2.9516351400537300 18.7840910080844772
 -14.0590505769415319 -0.7379087850134347 18.7840910080844772
 -11.5028595629521604  0.7379087850134320 20.8712122312049750
 -10.2247640559574755  2.9516351400537286 20.8712122312049750
 -8.9466685489627942  5.1653614950940261 20.8712122312049750
 -7.6685730419681075  7.3790878501343240 20.8712122312049750
 -6.3904775349734226  9.5928142051746210 20.8712122312049750
 -8.9466685489627924  0.7379087850134325 20.8712122312049750
 -7.6685730419681093  2.9516351400537286 20.8712122312049750
 -6.3904775349734226  5.1653614950940243 20.8712122312049750
 -5.1123820279787386  7.3790878501343222 20.8712122312049750
 -23.0057191259043279 -1.4758175700268641 20.8712122312049750
 -6.3904775349734226  0.7379087850134325 20.8712122312049750
 -5.1123820279787378  2.9516351400537300 20.8712122312049750
 -3.8342865209840538  5.1653614950940252 20.8712122312049750
 -21.7276236189096430 -3.6895439250671629 20.8712122312049750
 -20.4495281119149546 -1.4758175700268668 20.8712122312049750
 -3.8342865209840546  0.7379087850134325 20.8712122312049750
 -2.5561910139893715  2.9516351400537295 20.8712122312049750
 -20.4495281119149581 -5.9032702801074581 20.8712122312049750
 -19.1714326049202697 -3.6895439250671638 20.8712122312049750
 -17.8933370979255884 -1.4758175700268641 20.8712122312049750
 -1.2780955069946849  0.7379087850134323 20.8712122312049750
 -19.1714326049202732 -8.1169966351477569 20.8712122312049750
 -17.8933370979255848 -5.9032702801074599 20.8712122312049750
 -16.6152415909309035 -3.6895439250671629 20.8712122312049750
 -15.3371460839362204 -1.4758175700268668 20.8712122312049750
 -12.7809550699468453 -0.0000000000000009 22.9583334543254729
 -11.5028595629521622  2.2137263550402970 22.9583334543254729
 -10.2247640559574791  4.4274527100805923 22.9583334543254729
 -8.9466685489627942  6.6411790651208911 22.9583334543254729
 -7.6685730419681084  8.8549054201611881 22.9583334543254729
 -10.2247640559574773  0.0000000000000000 22.9583334543254729
 -8.9466685489627942  2.2137263550402966 22.9583334543254729
 -7.6685730419681066  4.4274527100805940 22.9583334543254729
 -6.3904775349734226  6.6411790651208893 22.9583334543254729
 -5.1123820279787386  8.8549054201611881 22.9583334543254729
 -7.6685730419681075  0.0000000000000000 22.9583334543254729
 -6.3904775349734226  2.2137263550402975 22.9583334543254729
 -5.1123820279787378  4.4274527100805940 22.9583334543254729
 -3.8342865209840524  6.6411790651208902 22.9583334543254729
 -21.7276236189096394 -2.2137263550402979 22.9583334543254729
 -5.1123820279787395  0.0000000000000000 22.9583334543254729
 -3.8342865209840542  2.2137263550402970 22.9583334543254729
 -2.5561910139893680  4.4274527100805940 22.9583334543254729
 -20.4495281119149581 -4.4274527100805949 22.9583334543254729
 -19.1714326049202732 -2.2137263550402979 22.9583334543254729
 -2.5561910139893680  0.0000000000000000 22.9583334543254729
 -1.2780955069946831  2.2137263550402970 22.9583334543254729
 -19.1714326049202697 -6.6411790651208920 22.9583334543254729
 -17.8933370979255884 -4.4274527100805958 22.9583334543254729
 -16.6152415909308999 -2.2137263550402970 22.9583334543254729
 -10.2247640559574791  1.4758175700268650 25.0454546774459672
 -8.9466685489627942  3.6895439250671620 25.0454546774459672
 -7.6685730419681075  5.9032702801074581 25.0454546774459672
 -6.3904775349734235  8.1169966351477552 25.0454546774459672
 -24.2838146328990092 -0.7379087850134329 25.0454546774459672
 -7.6685730419681093  1.4758175700268650 25.0454546774459672
 -6.3904775349734253  3.6895439250671620 25.0454546774459672
 -5.1123820279787378  5.9032702801074572 25.0454546774459672
 -23.0057191259043243 -2.9516351400537308 25.0454546774459672
 -21.7276236189096430 -0.7379087850134347 25.0454546774459672
 -5.1123820279787378  1.4758175700268648 25.0454546774459672
 -3.8342865209840538  3.6895439250671616 25.0454546774459672
 -21.7276236189096394 -5.1653614950940279 25.0454546774459672
 -20.4495281119149581 -2.9516351400537317 25.0454546774459672
 -19.1714326049202697 -0.7379087850134347 25.0454546774459672
 -2.5561910139893698  1.4758175700268645 25.0454546774459672
 -20.4495281119149546 -7.3790878501343240 25.0454546774459672
 -19.1714326049202697 -5.1653614950940270 25.0454546774459672
 -17.8933370979255848 -2.9516351400537308 25.0454546774459672
 -16.6152415909308999 -0.7379087850134338 25.0454546774459672
 -19.1714326049202697 -9.5928142051746228 25.0454546774459672
 -17.8933370979255848 -7.3790878501343231 25.0454546774459672
 -16.6152415909308999 -5.1653614950940261 25.0454546774459672
 -15.3371460839362168 -2.9516351400537300 25.0454546774459672
 -14.0590505769415319 -0.7379087850134347 25.0454546774459672
 -11.5028595629521604  0.7379087850134320 27.1325759005664651
 -10.2247640559574755  2.9516351400537286 27.1325759005664651
 -8.9466685489627942  5.1653614950940261 27.1325759005664651
 -7.6685730419681075  7.3790878501343240 27.1325759005664651
 -6.3904775349734226  9.5928142051746210 27.1325759005664651
 -8.9466685489627924  0.7379087850134325 27.1325759005664651
 -7.6685730419681093  2.9516351400537286 27.1325759005664651
 -6.3904775349734226  5.1653614950940243 27.1325759005664651
 -5.1123820279787386  7.3790878501343222 27.1325759005664651
 -23.0057191259043279 -1.4758175700268641 27.1325759005664651
 -6.3904775349734226  0.7379087850134325 27.1325759005664651
 -5.1123820279787378  2.9516351400537300 27.1325759005664651
 -3.8342865209840538  5.1653614950940252 27.1325759005664651
 -21.7276236189096430 -3.6895439250671629 27.1325759005664651
 -20.4495281119149546 -1.4758175700268668 27.1325759005664651
 -3.8342865209840546  0.7379087850134325 27.1325759005664651
 -2.5561910139893715  2.9516351400537295 27.1325759005664651
 -20.4495281119149581 -5.9032702801074581 27.1325759005664651
 -19.1714326049202697 -3.6895439250671638 27.1325759005664651
 -17.8933370979255884 -1.4758175700268641 27.1325759005664651
 -1.2780955069946849  0.7379087850134323 27.1325759005664651
 -19.1714326049202732 -8.1169966351477569 27.1325759005664651
 -17.8933370979255848 -5.9032702801074599 27.1325759005664651
 -16.6152415909309035 -3.6895439250671629 27.1325759005664651
 -15.3371460839362204 -1.4758175700268668 27.1325759005664651
 -10.2247640559574791  1.4758175700268650 29.2196971236869629
 -8.9466685489627942  3.6895439250671620 29.2196971236869629
 -7.6685730419681075  5.9032702801074581 29.2196971236869629
 -6.3904775349734235  8.1169966351477552 29.2196971236869629
 -24.2838146328990092 -0.7379087850134329 29.2196971236869629
 -7.6685730419681093  1.4758175700268650 29.2196971236869629
 -6.3904775349734253  3.6895439250671620 29.2196971236869629
 -5.1123820279787378  5.9032702801074572 29.2196971236869629
 -23.0057191259043243 -2.9516351400537308 29.2196971236869629
 -21.7276236189096430 -0.7379087850134347 29.2196971236869629
 -5.1123820279787378  1.4758175700268648 29.2196971236869629
 -3.8342865209840538  3.6895439250671616 29.2196971236869629
 -21.7276236189096394 -5.1653614950940279 29.2196971236869629
 -20.4495281119149581 -2.9516351400537317 29.2196971236869629
 -19.1714326049202697 -0.7379087850134347 29.2196971236869629
 -2.5561910139893698  1.4758175700268645 29.2196971236869629
 -20.4495281119149546 -7.3790878501343240 29.2196971236869629
 -19.1714326049202697 -5.1653614950940270 29.2196971236869629
 -17.8933370979255848 -2.9516351400537308 29.2196971236869629
 -16.6152415909308999 -0.7379087850134338 29.2196971236869629
 -19.1714326049202697 -9.5928142051746228 29.2196971236869629
 -17.8933370979255848 -7.3790878501343231 29.2196971236869629
 -16.6152415909308999 -5.1653614950940261 29.2196971236869629
 -15.3371460839362168 -2.9516351400537300 29.2196971236869629
 -14.0590505769415319 -0.7379087850134347 29.2196971236869629
 -12.7809550699468453 -0.0000000000000009 31.3068183468074608
 -11.5028595629521622  2.2137263550402970 31.3068183468074608
 -10.2247640559574791  4.4274527100805923 31.3068183468074608
 -8.9466685489627942  6.6411790651208911 31.3068183468074608
 -7.6685730419681084  8.8549054201611881 31.3068183468074608
 -10.2247640559574773  0.0000000000000000 31.3068183468074608
 -8.9466685489627942  2.2137263550402966 31.3068183468074608
 -7.6685730419681066  4.4274527100805940 31.3068183468074608
 -6.3904775349734226  6.6411790651208893 31.3068183468074608
 -5.1123820279787386  8.8549054201611881 31.3068183468074608
 -7.6685730419681075  0.0000000000000000 31.3068183468074608
 -6.3904775349734226  2.2137263550402975 31.3068183468074608
 -5.1123820279787378  4.4274527100805940 31.3068183468074608
 -3.8342865209840524  6.6411790651208902 31.3068183468074608
 -21.7276236189096394 -2.2137263550402979 31.3068183468074608
 -5.1123820279787395  0.0000000000000000 31.3068183468074608
 -3.8342865209840542  2.2137263550402970 31.3068183468074608
 -2.5561910139893680  4.4274527100805940 31.3068183468074608
 -20.4495281119149581 -4.4274527100805949 31.3068183468074608
 -19.1714326049202732 -2.2137263550402979 31.3068183468074608
 -2.5561910139893680  0.0000000000000000 31.3068183468074608
 -1.2780955069946831  2.2137263550402970 31.3068183468074608
 -19.1714326049202697 -6.6411790651208920 31.3068183468074608
 -17.8933370979255884 -4.4274527100805958 31.3068183468074608
 -16.6152415909308999 -2.2137263550402970 31.3068183468074608
 -11.5028595629521604  0.7379087850134320 33.3939395699279586
 -10.2247640559574755  2.9516351400537286 33.3939395699279586
 -8.9466685489627942  5.1653614950940261 33.3939395699279586
 -7.6685730419681075  7.3790878501343240 33.3939395699279586
 -6.3904775349734226  9.5928142051746210 33.3939395699279586
 -8.9466685489627924  0.7379087850134325 33.3939395699279586
 -7.6685730419681093  2.9516351400537286 33.3939395699279586
 -6.3904775349734226  5.1653614950940243 33.3939395699279586
 -5.1123820279787386  7.3790878501343222 33.3939395699279586
 -23.0057191259043279 -1.4758175700268641 33.3939395699279586
 -6.3904775349734226  0.7379087850134325 33.3939395699279586
 -5.1123820279787378  2.9516351400537300 33.3939395699279586
 -3.8342865209840538  5.1653614950940252 33.3939395699279586
 -21.7276236189096430 -3.6895439250671629 33.3939395699279586
 -20.4495281119149546 -1.4758175700268668 33.3939395699279586
 -3.8342865209840546  0.7379087850134325 33.3939395699279586
 -2.5561910139893715  2.9516351400537295 33.3939395699279586
 -20.4495281119149581 -5.9032702801074581 33.3939395699279586
 -19.1714326049202697 -3.6895439250671638 33.3939395699279586
 -17.8933370979255884 -1.4758175700268641 33.3939395699279586
 -1.2780955069946849  0.7379087850134323 33.3939395699279586
 -19.1714326049202732 -8.1169966351477569 33.3939395699279586
 -17.8933370979255848 -5.9032702801074599 33.3939395699279586
 -16.6152415909309035 -3.6895439250671629 33.3939395699279586
 -15.3371460839362204 -1.4758175700268668 33.3939395699279586
  0.0000000000000000  0.0000000000000000  0.0000000000000000
 -17.8933370979255848 -8.8549054201611881  0.0000000000000000
 -16.6152415909308999 -6.6411790651208911  0.0000000000000000
 -15.3371460839362204 -4.4274527100805949  0.0000000000000000
 -14.0590505769415337 -2.2137263550402970  0.0000000000000000
 -23.0057191259043243  0.0000000000000000  0.0000000000000000
 -15.3371460839362168 -8.8549054201611881  0.0000000000000000
 -14.0590505769415355 -6.6411790651208928  0.0000000000000000
 -12.7809550699468488 -4.4274527100805940  0.0000000000000000
 -11.5028595629521639 -2.2137263550402979  0.0000000000000000
 -20.4495281119149581  0.0000000000000000  0.0000000000000000
 -19.1714326049202697  2.2137263550402961  0.0000000000000000
 -11.5028595629521639 -6.6411790651208920  0.0000000000000000
 -10.2247640559574755 -4.4274527100805940  0.0000000000000000
 -8.9466685489627888 -2.2137263550402961  0.0000000000000000
 -17.8933370979255919  0.0000000000000000  0.0000000000000000
 -16.6152415909308999  2.2137263550402970  0.0000000000000000
 -15.3371460839362150  4.4274527100805949  0.0000000000000000
 -7.6685730419681084 -4.4274527100805940  0.0000000000000000
 -6.3904775349734253 -2.2137263550402961  0.0000000000000000
 -15.3371460839362150  0.0000000000000000  0.0000000000000000
 -14.0590505769415302  2.2137263550402970  0.0000000000000000
 -12.7809550699468417  4.4274527100805958  0.0000000000000000
 -11.5028595629521639  6.6411790651208928  0.0000000000000000
 -3.8342865209840489 -2.2137263550402966  0.0000000000000000
 -17.8933370979255848 -10.3307229901880522  2.0871212231204974
 -16.6152415909308999 -8.1169966351477569  2.0871212231204974
 -15.3371460839362168 -5.9032702801074599  2.0871212231204974
 -14.0590505769415355 -3.6895439250671638  2.0871212231204974
 -12.7809550699468470 -1.4758175700268650  2.0871212231204974
 -21.7276236189096394  0.7379087850134312  2.0871212231204974
 -14.0590505769415319 -8.1169966351477569  2.0871212231204974
 -12.7809550699468506 -5.9032702801074608  2.0871212231204974
 -11.5028595629521622 -3.6895439250671629  2.0871212231204974
 -10.2247640559574737 -1.4758175700268641  2.0871212231204974
 -19.1714326049202697  0.7379087850134329  2.0871212231204974
 -17.8933370979255848  2.9516351400537300  2.0871212231204974
 -10.2247640559574791 -5.9032702801074599  2.0871212231204974
 -8.9466685489627871 -3.6895439250671620  2.0871212231204974
 -7.6685730419681066 -1.4758175700268632  2.0871212231204974
 -16.6152415909309070  0.7379087850134320  2.0871212231204974
 -15.3371460839362186  2.9516351400537300  2.0871212231204974
 -14.0590505769415284  5.1653614950940261  2.0871212231204974
 -6.3904775349734226 -3.6895439250671616  2.0871212231204974
 -5.1123820279787395 -1.4758175700268628  2.0871212231204974
 -14.0590505769415284  0.7379087850134320  2.0871212231204974
 -12.7809550699468470  2.9516351400537308  2.0871212231204974
 -11.5028595629521604  5.1653614950940270  2.0871212231204974
 -10.2247640559574791  7.3790878501343249  2.0871212231204974
 -2.5561910139893707 -1.4758175700268632  2.0871212231204974
 -16.6152415909308999 -9.5928142051746210  4.1742424462409948
 -15.3371460839362168 -7.3790878501343240  4.1742424462409948
 -14.0590505769415302 -5.1653614950940261  4.1742424462409948
 -12.7809550699468488 -2.9516351400537308  4.1742424462409948
 -11.5028595629521604 -0.7379087850134329  4.1742424462409948
 -20.4495281119149510  1.4758175700268641  4.1742424462409948
 -12.7809550699468470 -7.3790878501343231  4.1742424462409948
 -11.5028595629521639 -5.1653614950940270  4.1742424462409948