#Generated by Multiwfn (http://sobereva.com/multiwfn)
@SET DATAPATH /share/apps/cp2k/il-2024.1_intelmpi/data
&GLOBAL
  PROJECT cp2k_PBE_dig_k221_smearing
  PRINT_LEVEL LOW
  RUN_TYPE ENERGY_FORCE
&END GLOBAL

&FORCE_EVAL
  METHOD Quickstep
  STRESS_TENSOR ANALYTICAL
  &SUBSYS
    &TOPOLOGY
      COORD_FILE_FORMAT XYZ #The format of the file providing coordinates
      COORD_FILE_NAME cp2k.xyz
    &END TOPOLOGY
    &CELL
      A    14.74827037     0.44487984    -0.45260921
      B     0.00000000    14.73402120     0.39043897
      C     0.00000000     0.00000000    29.94402943
      PERIODIC XYZ #Direction(s) of applied PBC (geometry aspect)
    &END CELL
    &KIND Na
      ELEMENT Na
      BASIS_SET TZVP-MOLOPT-SCAN-GTH-q9
      POTENTIAL GTH-SCAN-q9
    &END KIND
    &KIND S
      ELEMENT S
      BASIS_SET TZVP-MOLOPT-SCAN-GTH-q6
      POTENTIAL GTH-SCAN-q6
    &END KIND
    &KIND Sb
      ELEMENT Sb
      BASIS_SET TZVP-MOLOPT-SCAN-GTH-q5
      POTENTIAL GTH-SCAN-q5
    &END KIND
    &KIND P
      ELEMENT P
      BASIS_SET TZVP-MOLOPT-SCAN-GTH-q5
      POTENTIAL GTH-SCAN-q5
    &END KIND
    &KIND W
      ELEMENT W
      BASIS_SET TZVP-MOLOPT-SCAN-GTH-q15
      POTENTIAL GTH-SCAN-q15
    &END KIND
  &END SUBSYS

  &DFT
    BASIS_SET_FILE_NAME  ${DATAPATH}/BASIS_MOLOPT_UZH
    POTENTIAL_FILE_NAME  ${DATAPATH}/POTENTIAL_UZH
#   WFN_RESTART_FILE_NAME cp2k-RESTART.kp
    CHARGE    0 #Net charge
    MULTIPLICITY    1 #Spin multiplicity
    &KPOINTS
      SCHEME MONKHORST-PACK  2  2  2
    &END KPOINTS
    &QS
      EPS_DEFAULT 1.0E-12 #Set all EPS_xxx to values such that the energy will be correct up to this value
    &END QS
    &POISSON
      PERIODIC XYZ #Direction(s) of PBC for calculating electrostatics
      PSOLVER PERIODIC #The way to solve Poisson equation
    &END POISSON
    &XC
      &XC_FUNCTIONAL PBE
      &END XC_FUNCTIONAL
    &END XC
    &MGRID
      CUTOFF 1000
      REL_CUTOFF  80
      NGRIDS 5 #The number of multigrids to use. 5 is optimal for MOLOPT-GTH basis sets
    &END MGRID
    &SCF
      MAX_SCF 128
      EPS_SCF 1.0E-06 #Convergence threshold of density matrix of inner SCF
#     SCF_GUESS RESTART #Use wavefunction from WFN_RESTART_FILE_NAME file as initial guess
#     IGNORE_CONVERGENCE_FAILURE #Continue calculation even if SCF not converged, works for version >= 2024.1
      &DIAGONALIZATION
        ALGORITHM STANDARD #Algorithm for diagonalization
      &END DIAGONALIZATION
      &MIXING #How to mix old and new density matrices
        METHOD BROYDEN_MIXING #PULAY_MIXING is also a good alternative
        ALPHA 0.4 #Default. Mixing 40% of new density matrix with the old one
        NBROYDEN 8 #Default is 4. Number of previous steps stored for the actual mixing scheme
      &END MIXING
      &SMEAR
        METHOD FERMI_DIRAC
        ELECTRONIC_TEMPERATURE 226 #Electronic temperature of Fermi-Dirac smearing in K
      &END SMEAR
      ADDED_MOS   128 #Number of virtual MOs to solve
      &PRINT
        &RESTART OFF #Note: Use "&RESTART OFF" can prevent generating .wfn file
          BACKUP_COPIES 0 #Maximum number of backup copies of wfn file. 0 means never
        &END RESTART
      &END PRINT
    &END SCF
  &END DFT
  &PRINT
    &FORCES ON #Print atomic forces
    &END FORCES
    &STRESS_TENSOR ON
    &END STRESS_TENSOR
  &END PRINT
&END FORCE_EVAL
