# ---------- Basic ----------
ENCUT  = 500
PREC   = Accurate
LREAL  = Auto
LASPH  = .TRUE.
ADDGRID= .TRUE.

LWAVE  = .FALSE.
LCHARG = .FALSE.

# ---------- Electronic ----------
ISMEAR = 0
SIGMA  = 0.05
NELM   = 200
NELMIN = 6
EDIFF  = 1E-7

GGA    = PE

# ---------- Static single-point ----------
IBRION = -1
NSW    = 0
ISIF   = 2

# ---------- k-points ----------
KSPACING = 0.15
KGAMMA   = .TRUE.

# ---------- Parallel ----------
NCORE = 4

