ISTART = 0
ISPIN  = 1
LREAL  = Auto
ENCUT  = 500

LWAVE  = .FALSE.
LCHARG = .FALSE.

# Electronic Structure
ISMEAR = 1
SIGMA  = 0.1
NELM   = 120
EDIFF  = 1E-6
EDIFFG = -0.01

GGA    = PE

# Relaxation
IBRION = 2     # CG algorithm
ISIF   = 3     # Relax ions + cell volume + cell shape
NSW    = 100   # Max steps

# K-points
KSPACING = 0.20
KGAMMA   = .FALSE.

# Parallel
NCORE  = 4
